
Gurobi 10.0.1 (linux64) logging started Wed May 24 23:49:53 2023

Set parameter LogFile to value "logFiles/N-1L-B/N-1L-13U-20F-23V-240D/basic-05-24-2023, 23-49-H70-P50-O15.log"
Gurobi Optimizer version 10.0.1 build v10.0.1rc0 (linux64)

CPU model: Intel(R) Xeon(R) Gold 5115 CPU @ 2.40GHz, instruction set [SSE2|AVX|AVX2|AVX512]
Thread count: 20 physical cores, 40 logical processors, using up to 20 threads

Optimize a model with 94463 rows, 1122385 columns and 5429851 nonzeros
Model fingerprint: 0x5fc82124
Variable types: 565352 continuous, 557033 integer (557033 binary)
Coefficient statistics:
  Matrix range     [1e+00, 2e+05]
  Objective range  [4e+01, 3e+07]
  Bounds range     [1e+00, 1e+00]
  RHS range        [1e+00, 1e+06]
Presolve removed 54554 rows and 19224 columns
Presolve time: 0.35s

Explored 0 nodes (0 simplex iterations) in 1.41 seconds (0.82 work units)
Thread count was 1 (of 40 available processors)

Solution count 0

Model is infeasible or unbounded
Best objective -, best bound -, gap -
IIS computation: initial model status unknown, solving to determine model status
Presolve removed 61660 rows and 360720 columns (presolve time = 5s) ...
Presolve removed 63292 rows and 361295 columns (presolve time = 10s) ...
Presolve removed 63292 rows and 361295 columns (presolve time = 15s) ...
Presolve removed 63264 rows and 361267 columns
Presolve time: 15.89s
Presolved: 31199 rows, 761118 columns, 3702843 nonzeros
Variable types: 237687 continuous, 523431 integer (523431 binary)
Deterministic concurrent LP optimizer: primal simplex, dual simplex, and barrier
Showing barrier log only...

Root barrier log...

Ordering time: 1.29s

Barrier statistics:
 AA' NZ     : 1.879e+06
 Factor NZ  : 7.135e+06 (roughly 400 MB of memory)
 Factor Ops : 1.054e+10 (less than 1 second per iteration)
 Threads    : 17

                  Objective                Residual
Iter       Primal          Dual         Primal    Dual     Compl     Time
   0  -0.00000000e+00  1.17707767e+05  1.05e+09 0.00e+00  5.64e+03    25s
   1  -0.00000000e+00  1.73937179e+05  5.53e+08 1.94e-02  3.03e+03    25s
   2  -0.00000000e+00  1.67735920e+05  8.60e+07 1.94e-16  4.81e+02    26s
   3  -0.00000000e+00  1.23166332e+05  3.29e+06 1.39e-16  1.85e+01    26s
   4  -0.00000000e+00  5.21317898e+04  6.72e+05 1.11e-16  2.45e+00    27s
   5  -0.00000000e+00  2.83751950e+04  2.38e+05 1.06e-16  6.46e-01    27s
   6  -0.00000000e+00  1.56242658e+04  1.49e+05 9.19e-17  2.64e-01    27s
   7  -0.00000000e+00  6.84408885e+03  5.30e+04 6.75e-09  5.09e-02    28s
   8  -0.00000000e+00  2.47374963e+03  3.81e+04 1.18e-08  1.67e-02    28s
   9  -0.00000000e+00  4.50438776e+02  7.16e+03 5.20e-08  1.20e-03    28s
  10  -0.00000000e+00  8.03079080e+01  3.07e+02 5.69e-08  7.05e-05    29s
  11  -0.00000000e+00  1.59275479e+01  9.21e+01 2.47e-08  1.40e-05    29s
  12  -0.00000000e+00  1.55945248e+01  8.58e+01 2.43e-08  1.35e-05    30s
  13  -0.00000000e+00  1.06797851e+01  5.61e+01 1.92e-08  9.07e-06    30s
  14  -0.00000000e+00  8.88976158e+00  3.33e+01 1.71e-08  7.04e-06    30s
  15  -0.00000000e+00  7.16641268e+00  2.30e+01 1.46e-08  5.55e-06    31s
  16  -0.00000000e+00  5.84745632e+00  1.69e+01 1.09e-08  4.46e-06    31s
  17  -0.00000000e+00  5.30533331e+00  1.60e+01 9.54e-09  4.08e-06    32s
  18  -0.00000000e+00  3.95857890e+00  1.07e+01 7.78e-09  3.03e-06    32s
  19  -0.00000000e+00  3.17448396e+00  6.10e+00 7.01e-09  2.35e-06    33s
  20  -0.00000000e+00  2.21955672e+00  4.70e+00 1.02e-08  1.68e-06    33s
  21  -0.00000000e+00  1.98793581e+00  4.40e+00 1.08e-08  1.52e-06    33s
  22  -0.00000000e+00  1.41871794e+00  2.86e+00 2.36e-08  1.08e-06    34s
  23  -0.00000000e+00  9.16612474e-01  2.31e+00 2.37e-08  7.24e-07    34s
  24  -0.00000000e+00  7.47182598e-01  2.07e+00 2.36e-08  5.93e-07    35s
  25  -0.00000000e+00  3.92607996e-01  9.13e-01 2.19e-08  2.92e-07    35s
  26  -0.00000000e+00  1.49067318e-01  2.17e-01 1.57e-08  1.06e-07    36s
  27  -0.00000000e+00  6.41875084e-02  3.46e-02 8.95e-09  4.47e-08    36s
  28  -0.00000000e+00  3.23066289e-03  2.15e-03 1.22e-09  2.58e-09    37s
  29  -0.00000000e+00  3.52988757e-06  3.31e-06 3.19e-12  3.62e-12    37s
  30  -0.00000000e+00  1.82981749e-11  3.49e-11 5.36e-17  1.87e-17    37s

Barrier solved model in 30 iterations and 37.32 seconds (42.94 work units)
Optimal objective -0.00000000e+00

  Building initial crossover basis                                41s
  Building initial crossover basis                                45s
  Building initial crossover basis                                50s
  Building initial crossover basis                                55s
  Building initial crossover basis                                60s

Root crossover log...

   15166 DPushes remaining with DInf 2.9276030e+01                63s
       0 DPushes remaining with DInf 0.0000000e+00                63s

     205 PPushes remaining with PInf 4.4411055e-05                63s
       0 PPushes remaining with PInf 0.0000000e+00                63s

  Push phase complete: Pinf 0.0000000e+00, Dinf 0.0000000e+00     63s


Root simplex log...

Iteration    Objective       Primal Inf.    Dual Inf.      Time
    1324   -0.0000000e+00   0.000000e+00   0.000000e+00     63s
Concurrent spin time: 0.01s

Solved with barrier
    1324   -0.0000000e+00   0.000000e+00   0.000000e+00     64s

Root relaxation: objective -0.000000e+00, 1324 iterations, 44.03 seconds (36.01 work units)

    Nodes    |    Current Node    |     Objective Bounds      |     Work
 Expl Unexpl |  Obj  Depth IntInf | Incumbent    BestBd   Gap | It/Node Time

     0     0  postponed    0               -   -0.00000      -     -   63s
H    0     0                      -0.0000000   -0.00000  0.00%     -   63s

Explored 1 nodes (11630 simplex iterations) in 63.88 seconds (64.03 work units)
Thread count was 20 (of 40 available processors)

Solution count 1: -0 
No other solutions better than -0

Optimal solution found (tolerance 1.00e-02)
Best objective -0.000000000000e+00, best bound -0.000000000000e+00, gap 0.0000%
IIS runtime: 63.92 seconds (64.03 work units)
